165
0 85 81 44 75 37 158 135 51 83 
108 5 9 146 45 62 67 27 21 102 
116 18 151 117 4 61 41 139 133 55 
161 126 111 49 2 124 1 118 24 8 
23 70 160 144 150 100 101 134 152 26 
154 115 121 137 140 66 148 91 125 32 
76 17 141 40 93 92 129 31 127 147 
87 56 20 69 128 72 14 25 16 33 
142 60 78 106 138 39 28 130 73 159 
164 113 46 6 107 50 99 163 98 157 
68 29 120 57 132 71 136 36 22 86 
94 156 80 79 63 82 145 19 96 34 
104 47 38 97 58 3 103 42 122 88 
84 123 43 48 13 54 109 119 15 65 
30 149 10 12 143 162 114 153 155 35 
53 89 77 52 90 105 11 74 95 64 
112 131 110 7 59 
